# Objective value = 59
WA1n 0
WA1p 0
WA2n 1
WA2p 0
WB1n 0
WB1p 0
WB2n 1
WB2p 0
WC1n 1
WC1p 0
WD1n 1
WD1p 0
WE1n 0
WE1p 1
WF1n 0
WF1p 3
WF2n 0
WF2p 1
WG1n 0
WG1p 4
WG2n 0
WG2p 1
WH1n 0
WH1p 8
WI1n 0
WI1p 12
WI2n 0
WI2p 1
WT1n 0
WT1p 17
WT2n 0
WT2p 1
5 7
a 0
b 0
c 0
d 0
e 0
f 0
g 1
h 1
i 1
j 1
k 1
l 1
m 1
n 1
o 1
p 1
